NAME : n60w120.005.579.tour
COMMENT : Length = 579
COMMENT : Found by LKH [Keld Helsgaun] Tue Nov  7 19:39:18 2017
TYPE : TOUR
DIMENSION : 61
TOUR_SECTION
1
9
12
14
36
19
43
52
27
51
13
11
21
56
17
45
48
34
8
30
29
4
35
38
50
46
20
59
3
33
22
26
49
47
54
2
53
57
23
18
7
40
58
28
37
55
32
44
24
39
41
60
31
15
10
6
25
61
16
5
42
-1
EOF
